
;this file is automatically generated: Tue Feb 23 13:38:02 CST 2021

;declarations generated

(declare-fun oclExcludes ( Int Int) Bool)
(declare-fun type_37b09f20_badd_4497_8592_f8d3871cf180_Class7 ( Int) Bool)
(declare-fun type_37b09f20_badd_4497_8592_f8d3871cf180_Class8 ( Int) Bool)
(declare-fun type_37b09f20_badd_4497_8592_f8d3871cf180_Class5 ( Int) Bool)
(declare-fun type_37b09f20_badd_4497_8592_f8d3871cf180_Class6 ( Int) Bool)
(declare-fun type_37b09f20_badd_4497_8592_f8d3871cf180_Class3 ( Int) Bool)
(declare-fun type_37b09f20_badd_4497_8592_f8d3871cf180_Class4 ( Int) Bool)
(declare-fun type_37b09f20_badd_4497_8592_f8d3871cf180_Class1 ( Int) Bool)
(declare-fun type_37b09f20_badd_4497_8592_f8d3871cf180_Class2 ( Int) Bool)
(declare-fun type_37b09f20_badd_4497_8592_f8d3871cf180_Class0 ( Int) Bool)
(declare-fun Cardinality ( Int) Int)
(declare-fun type_37b09f20_badd_4497_8592_f8d3871cf180_Class9 ( Int) Bool)
(declare-fun type_37b09f20_badd_4497_8592_f8d3871cf180_Class18 ( Int) Bool)
(declare-fun type_37b09f20_badd_4497_8592_f8d3871cf180_Class19 ( Int) Bool)
(declare-fun type_37b09f20_badd_4497_8592_f8d3871cf180_Class21 ( Int) Bool)
(declare-fun type_37b09f20_badd_4497_8592_f8d3871cf180_Class22 ( Int) Bool)
(declare-fun type_37b09f20_badd_4497_8592_f8d3871cf180_Class23 ( Int) Bool)
(declare-fun type_37b09f20_badd_4497_8592_f8d3871cf180_Class24 ( Int) Bool)
(declare-fun type_37b09f20_badd_4497_8592_f8d3871cf180_Class25 ( Int) Bool)
(declare-fun type_37b09f20_badd_4497_8592_f8d3871cf180_Class26 ( Int) Bool)
(declare-fun type_37b09f20_badd_4497_8592_f8d3871cf180_Class27 ( Int) Bool)
(declare-fun type_37b09f20_badd_4497_8592_f8d3871cf180_Class28 ( Int) Bool)
(declare-fun type_37b09f20_badd_4497_8592_f8d3871cf180_Class20 ( Int) Bool)
(declare-fun type_37b09f20_badd_4497_8592_f8d3871cf180_Class29 ( Int) Bool)
(declare-fun type_37b09f20_badd_4497_8592_f8d3871cf180_Class32 ( Int) Bool)
(declare-fun type_37b09f20_badd_4497_8592_f8d3871cf180_Class33 ( Int) Bool)
(declare-fun type_37b09f20_badd_4497_8592_f8d3871cf180_Class34 ( Int) Bool)
(declare-fun type_37b09f20_badd_4497_8592_f8d3871cf180_Class35 ( Int) Bool)
(declare-fun type_37b09f20_badd_4497_8592_f8d3871cf180_Class36 ( Int) Bool)
(declare-fun type_37b09f20_badd_4497_8592_f8d3871cf180_Class37 ( Int) Bool)
(declare-fun type_37b09f20_badd_4497_8592_f8d3871cf180_Class38 ( Int) Bool)
(declare-fun type_37b09f20_badd_4497_8592_f8d3871cf180_Class39 ( Int) Bool)
(declare-fun type_37b09f20_badd_4497_8592_f8d3871cf180_Class30 ( Int) Bool)
(declare-fun type_37b09f20_badd_4497_8592_f8d3871cf180_Class31 ( Int) Bool)
(declare-fun type_37b09f20_badd_4497_8592_f8d3871cf180_Class43 ( Int) Bool)
(declare-fun type_37b09f20_badd_4497_8592_f8d3871cf180_Class44 ( Int) Bool)
(declare-fun type_37b09f20_badd_4497_8592_f8d3871cf180_Class45 ( Int) Bool)
(declare-fun type_37b09f20_badd_4497_8592_f8d3871cf180_Class40 ( Int) Bool)
(declare-fun type_37b09f20_badd_4497_8592_f8d3871cf180_Class41 ( Int) Bool)
(declare-fun type_37b09f20_badd_4497_8592_f8d3871cf180_Class42 ( Int) Bool)
(declare-fun obj_d407f65d_1f3c_4b40_bbfc_9685fc6420c0 ( Int) Int)
(declare-fun type_37b09f20_badd_4497_8592_f8d3871cf180_Class10 ( Int) Bool)
(declare-fun type_37b09f20_badd_4497_8592_f8d3871cf180_Class11 ( Int) Bool)
(declare-fun type_37b09f20_badd_4497_8592_f8d3871cf180_Class12 ( Int) Bool)
(declare-fun type_37b09f20_badd_4497_8592_f8d3871cf180_Class13 ( Int) Bool)
(declare-fun type_37b09f20_badd_4497_8592_f8d3871cf180_Class14 ( Int) Bool)
(declare-fun type_37b09f20_badd_4497_8592_f8d3871cf180_Class15 ( Int) Bool)
(declare-fun type_37b09f20_badd_4497_8592_f8d3871cf180_Class16 ( Int) Bool)
(declare-fun type_37b09f20_badd_4497_8592_f8d3871cf180_Class17 ( Int) Bool)
(declare-fun oclSelect ( Int Bool) Int)
(declare-fun class24_Class24IntAttr0 ( Int) Int)
(declare-fun Enum0 ( Int) Int)
(declare-fun Enum1 ( Int) Int)
(declare-fun Enum2 ( Int) Int)
(declare-fun container_ ( Int) Int)
(declare-fun oclIncludes ( Int Int) Bool)
(declare-fun ObjAt ( Int Int) Int)

;formula(s) generated
(assert (! (forall ((c1 Int)) (=> (and (and (and ( type_37b09f20_badd_4497_8592_f8d3871cf180_Class24 c1 )  ( type_37b09f20_badd_4497_8592_f8d3871cf180_Class26 c1 ) ) ( type_37b09f20_badd_4497_8592_f8d3871cf180_Class32 c1 ) ) ( type_37b09f20_badd_4497_8592_f8d3871cf180_Class2 c1 ) ) (>= ( class24_Class24IntAttr0 ( obj_d407f65d_1f3c_4b40_bbfc_9685fc6420c0 c1 )  )  17))):named l0))
(assert (! (exists ((o Int)) (and (and (and ( type_37b09f20_badd_4497_8592_f8d3871cf180_Class0 ( obj_d407f65d_1f3c_4b40_bbfc_9685fc6420c0 o )  )  ( type_37b09f20_badd_4497_8592_f8d3871cf180_Class22 ( obj_d407f65d_1f3c_4b40_bbfc_9685fc6420c0 o )  ) ) ( type_37b09f20_badd_4497_8592_f8d3871cf180_Class35 ( obj_d407f65d_1f3c_4b40_bbfc_9685fc6420c0 o )  ) ) ( type_37b09f20_badd_4497_8592_f8d3871cf180_Class2 ( obj_d407f65d_1f3c_4b40_bbfc_9685fc6420c0 o )  ) )):named c0))
(assert (! (exists ((o Int)) ( type_37b09f20_badd_4497_8592_f8d3871cf180_Class1 ( obj_d407f65d_1f3c_4b40_bbfc_9685fc6420c0 o )  ) ):named c1))
(assert (! (exists ((o Int)) (and (and (and (and ( type_37b09f20_badd_4497_8592_f8d3871cf180_Class10 ( obj_d407f65d_1f3c_4b40_bbfc_9685fc6420c0 o )  )  ( type_37b09f20_badd_4497_8592_f8d3871cf180_Class16 ( obj_d407f65d_1f3c_4b40_bbfc_9685fc6420c0 o )  ) ) ( type_37b09f20_badd_4497_8592_f8d3871cf180_Class15 ( obj_d407f65d_1f3c_4b40_bbfc_9685fc6420c0 o )  ) ) ( type_37b09f20_badd_4497_8592_f8d3871cf180_Class41 ( obj_d407f65d_1f3c_4b40_bbfc_9685fc6420c0 o )  ) ) ( type_37b09f20_badd_4497_8592_f8d3871cf180_Class2 ( obj_d407f65d_1f3c_4b40_bbfc_9685fc6420c0 o )  ) )):named c2))
(assert (! (exists ((o Int)) ( type_37b09f20_badd_4497_8592_f8d3871cf180_Class11 ( obj_d407f65d_1f3c_4b40_bbfc_9685fc6420c0 o )  ) ):named c3))
(assert (! (exists ((o Int)) (and (and (and (and ( type_37b09f20_badd_4497_8592_f8d3871cf180_Class12 ( obj_d407f65d_1f3c_4b40_bbfc_9685fc6420c0 o )  )  ( type_37b09f20_badd_4497_8592_f8d3871cf180_Class22 ( obj_d407f65d_1f3c_4b40_bbfc_9685fc6420c0 o )  ) ) ( type_37b09f20_badd_4497_8592_f8d3871cf180_Class35 ( obj_d407f65d_1f3c_4b40_bbfc_9685fc6420c0 o )  ) ) ( type_37b09f20_badd_4497_8592_f8d3871cf180_Class0 ( obj_d407f65d_1f3c_4b40_bbfc_9685fc6420c0 o )  ) ) ( type_37b09f20_badd_4497_8592_f8d3871cf180_Class2 ( obj_d407f65d_1f3c_4b40_bbfc_9685fc6420c0 o )  ) )):named c4))
(assert (! (exists ((o Int)) (and (and (and ( type_37b09f20_badd_4497_8592_f8d3871cf180_Class13 ( obj_d407f65d_1f3c_4b40_bbfc_9685fc6420c0 o )  )  ( type_37b09f20_badd_4497_8592_f8d3871cf180_Class16 ( obj_d407f65d_1f3c_4b40_bbfc_9685fc6420c0 o )  ) ) ( type_37b09f20_badd_4497_8592_f8d3871cf180_Class15 ( obj_d407f65d_1f3c_4b40_bbfc_9685fc6420c0 o )  ) ) ( type_37b09f20_badd_4497_8592_f8d3871cf180_Class2 ( obj_d407f65d_1f3c_4b40_bbfc_9685fc6420c0 o )  ) )):named c5))
(assert (! (exists ((o Int)) (and (and (and (and (and (and (and ( type_37b09f20_badd_4497_8592_f8d3871cf180_Class14 ( obj_d407f65d_1f3c_4b40_bbfc_9685fc6420c0 o )  )  ( type_37b09f20_badd_4497_8592_f8d3871cf180_Class33 ( obj_d407f65d_1f3c_4b40_bbfc_9685fc6420c0 o )  ) ) ( type_37b09f20_badd_4497_8592_f8d3871cf180_Class13 ( obj_d407f65d_1f3c_4b40_bbfc_9685fc6420c0 o )  ) ) ( type_37b09f20_badd_4497_8592_f8d3871cf180_Class16 ( obj_d407f65d_1f3c_4b40_bbfc_9685fc6420c0 o )  ) ) ( type_37b09f20_badd_4497_8592_f8d3871cf180_Class15 ( obj_d407f65d_1f3c_4b40_bbfc_9685fc6420c0 o )  ) ) ( type_37b09f20_badd_4497_8592_f8d3871cf180_Class4 ( obj_d407f65d_1f3c_4b40_bbfc_9685fc6420c0 o )  ) ) ( type_37b09f20_badd_4497_8592_f8d3871cf180_Class41 ( obj_d407f65d_1f3c_4b40_bbfc_9685fc6420c0 o )  ) ) ( type_37b09f20_badd_4497_8592_f8d3871cf180_Class2 ( obj_d407f65d_1f3c_4b40_bbfc_9685fc6420c0 o )  ) )):named c6))
(assert (! (exists ((o Int)) (and ( type_37b09f20_badd_4497_8592_f8d3871cf180_Class15 ( obj_d407f65d_1f3c_4b40_bbfc_9685fc6420c0 o )  )  ( type_37b09f20_badd_4497_8592_f8d3871cf180_Class2 ( obj_d407f65d_1f3c_4b40_bbfc_9685fc6420c0 o )  ) )):named c7))
(assert (! (exists ((o Int)) (and (and ( type_37b09f20_badd_4497_8592_f8d3871cf180_Class16 ( obj_d407f65d_1f3c_4b40_bbfc_9685fc6420c0 o )  )  ( type_37b09f20_badd_4497_8592_f8d3871cf180_Class15 ( obj_d407f65d_1f3c_4b40_bbfc_9685fc6420c0 o )  ) ) ( type_37b09f20_badd_4497_8592_f8d3871cf180_Class2 ( obj_d407f65d_1f3c_4b40_bbfc_9685fc6420c0 o )  ) )):named c8))
(assert (! (exists ((o Int)) (and (and (and (and ( type_37b09f20_badd_4497_8592_f8d3871cf180_Class17 ( obj_d407f65d_1f3c_4b40_bbfc_9685fc6420c0 o )  )  ( type_37b09f20_badd_4497_8592_f8d3871cf180_Class24 ( obj_d407f65d_1f3c_4b40_bbfc_9685fc6420c0 o )  ) ) ( type_37b09f20_badd_4497_8592_f8d3871cf180_Class26 ( obj_d407f65d_1f3c_4b40_bbfc_9685fc6420c0 o )  ) ) ( type_37b09f20_badd_4497_8592_f8d3871cf180_Class32 ( obj_d407f65d_1f3c_4b40_bbfc_9685fc6420c0 o )  ) ) ( type_37b09f20_badd_4497_8592_f8d3871cf180_Class2 ( obj_d407f65d_1f3c_4b40_bbfc_9685fc6420c0 o )  ) )):named c9))
(assert (! (exists ((o Int)) ( type_37b09f20_badd_4497_8592_f8d3871cf180_Class18 ( obj_d407f65d_1f3c_4b40_bbfc_9685fc6420c0 o )  ) ):named c10))
(assert (! (exists ((o Int)) ( type_37b09f20_badd_4497_8592_f8d3871cf180_Class19 ( obj_d407f65d_1f3c_4b40_bbfc_9685fc6420c0 o )  ) ):named c11))
(assert (! (exists ((o Int)) ( type_37b09f20_badd_4497_8592_f8d3871cf180_Class2 ( obj_d407f65d_1f3c_4b40_bbfc_9685fc6420c0 o )  ) ):named c12))
(assert (! (exists ((o Int)) (and (and ( type_37b09f20_badd_4497_8592_f8d3871cf180_Class20 ( obj_d407f65d_1f3c_4b40_bbfc_9685fc6420c0 o )  )  ( type_37b09f20_badd_4497_8592_f8d3871cf180_Class21 ( obj_d407f65d_1f3c_4b40_bbfc_9685fc6420c0 o )  ) ) ( type_37b09f20_badd_4497_8592_f8d3871cf180_Class2 ( obj_d407f65d_1f3c_4b40_bbfc_9685fc6420c0 o )  ) )):named c13))
(assert (! (exists ((o Int)) (and ( type_37b09f20_badd_4497_8592_f8d3871cf180_Class21 ( obj_d407f65d_1f3c_4b40_bbfc_9685fc6420c0 o )  )  ( type_37b09f20_badd_4497_8592_f8d3871cf180_Class2 ( obj_d407f65d_1f3c_4b40_bbfc_9685fc6420c0 o )  ) )):named c14))
(assert (! (exists ((o Int)) (and (and ( type_37b09f20_badd_4497_8592_f8d3871cf180_Class22 ( obj_d407f65d_1f3c_4b40_bbfc_9685fc6420c0 o )  )  ( type_37b09f20_badd_4497_8592_f8d3871cf180_Class35 ( obj_d407f65d_1f3c_4b40_bbfc_9685fc6420c0 o )  ) ) ( type_37b09f20_badd_4497_8592_f8d3871cf180_Class2 ( obj_d407f65d_1f3c_4b40_bbfc_9685fc6420c0 o )  ) )):named c15))
(assert (! (exists ((o Int)) (and (and (and (and (and (and ( type_37b09f20_badd_4497_8592_f8d3871cf180_Class23 ( obj_d407f65d_1f3c_4b40_bbfc_9685fc6420c0 o )  )  ( type_37b09f20_badd_4497_8592_f8d3871cf180_Class12 ( obj_d407f65d_1f3c_4b40_bbfc_9685fc6420c0 o )  ) ) ( type_37b09f20_badd_4497_8592_f8d3871cf180_Class22 ( obj_d407f65d_1f3c_4b40_bbfc_9685fc6420c0 o )  ) ) ( type_37b09f20_badd_4497_8592_f8d3871cf180_Class25 ( obj_d407f65d_1f3c_4b40_bbfc_9685fc6420c0 o )  ) ) ( type_37b09f20_badd_4497_8592_f8d3871cf180_Class35 ( obj_d407f65d_1f3c_4b40_bbfc_9685fc6420c0 o )  ) ) ( type_37b09f20_badd_4497_8592_f8d3871cf180_Class0 ( obj_d407f65d_1f3c_4b40_bbfc_9685fc6420c0 o )  ) ) ( type_37b09f20_badd_4497_8592_f8d3871cf180_Class2 ( obj_d407f65d_1f3c_4b40_bbfc_9685fc6420c0 o )  ) )):named c16))
(assert (! (exists ((o Int)) (and (and (and ( type_37b09f20_badd_4497_8592_f8d3871cf180_Class24 ( obj_d407f65d_1f3c_4b40_bbfc_9685fc6420c0 o )  )  ( type_37b09f20_badd_4497_8592_f8d3871cf180_Class26 ( obj_d407f65d_1f3c_4b40_bbfc_9685fc6420c0 o )  ) ) ( type_37b09f20_badd_4497_8592_f8d3871cf180_Class32 ( obj_d407f65d_1f3c_4b40_bbfc_9685fc6420c0 o )  ) ) ( type_37b09f20_badd_4497_8592_f8d3871cf180_Class2 ( obj_d407f65d_1f3c_4b40_bbfc_9685fc6420c0 o )  ) )):named c17))
(assert (! (exists ((o Int)) (and (and (and (and (and ( type_37b09f20_badd_4497_8592_f8d3871cf180_Class25 ( obj_d407f65d_1f3c_4b40_bbfc_9685fc6420c0 o )  )  ( type_37b09f20_badd_4497_8592_f8d3871cf180_Class12 ( obj_d407f65d_1f3c_4b40_bbfc_9685fc6420c0 o )  ) ) ( type_37b09f20_badd_4497_8592_f8d3871cf180_Class22 ( obj_d407f65d_1f3c_4b40_bbfc_9685fc6420c0 o )  ) ) ( type_37b09f20_badd_4497_8592_f8d3871cf180_Class35 ( obj_d407f65d_1f3c_4b40_bbfc_9685fc6420c0 o )  ) ) ( type_37b09f20_badd_4497_8592_f8d3871cf180_Class0 ( obj_d407f65d_1f3c_4b40_bbfc_9685fc6420c0 o )  ) ) ( type_37b09f20_badd_4497_8592_f8d3871cf180_Class2 ( obj_d407f65d_1f3c_4b40_bbfc_9685fc6420c0 o )  ) )):named c18))
(assert (! (exists ((o Int)) (and (and ( type_37b09f20_badd_4497_8592_f8d3871cf180_Class26 ( obj_d407f65d_1f3c_4b40_bbfc_9685fc6420c0 o )  )  ( type_37b09f20_badd_4497_8592_f8d3871cf180_Class32 ( obj_d407f65d_1f3c_4b40_bbfc_9685fc6420c0 o )  ) ) ( type_37b09f20_badd_4497_8592_f8d3871cf180_Class2 ( obj_d407f65d_1f3c_4b40_bbfc_9685fc6420c0 o )  ) )):named c19))
(assert (! (exists ((o Int)) (and ( type_37b09f20_badd_4497_8592_f8d3871cf180_Class27 ( obj_d407f65d_1f3c_4b40_bbfc_9685fc6420c0 o )  )  ( type_37b09f20_badd_4497_8592_f8d3871cf180_Class2 ( obj_d407f65d_1f3c_4b40_bbfc_9685fc6420c0 o )  ) )):named c20))
(assert (! (exists ((o Int)) ( type_37b09f20_badd_4497_8592_f8d3871cf180_Class28 ( obj_d407f65d_1f3c_4b40_bbfc_9685fc6420c0 o )  ) ):named c21))
(assert (! (exists ((o Int)) ( type_37b09f20_badd_4497_8592_f8d3871cf180_Class29 ( obj_d407f65d_1f3c_4b40_bbfc_9685fc6420c0 o )  ) ):named c22))
(assert (! (exists ((o Int)) ( type_37b09f20_badd_4497_8592_f8d3871cf180_Class3 ( obj_d407f65d_1f3c_4b40_bbfc_9685fc6420c0 o )  ) ):named c23))
(assert (! (exists ((o Int)) (and ( type_37b09f20_badd_4497_8592_f8d3871cf180_Class30 ( obj_d407f65d_1f3c_4b40_bbfc_9685fc6420c0 o )  )  ( type_37b09f20_badd_4497_8592_f8d3871cf180_Class2 ( obj_d407f65d_1f3c_4b40_bbfc_9685fc6420c0 o )  ) )):named c24))
(assert (! (exists ((o Int)) (and (and (and (and ( type_37b09f20_badd_4497_8592_f8d3871cf180_Class31 ( obj_d407f65d_1f3c_4b40_bbfc_9685fc6420c0 o )  )  ( type_37b09f20_badd_4497_8592_f8d3871cf180_Class16 ( obj_d407f65d_1f3c_4b40_bbfc_9685fc6420c0 o )  ) ) ( type_37b09f20_badd_4497_8592_f8d3871cf180_Class15 ( obj_d407f65d_1f3c_4b40_bbfc_9685fc6420c0 o )  ) ) ( type_37b09f20_badd_4497_8592_f8d3871cf180_Class41 ( obj_d407f65d_1f3c_4b40_bbfc_9685fc6420c0 o )  ) ) ( type_37b09f20_badd_4497_8592_f8d3871cf180_Class2 ( obj_d407f65d_1f3c_4b40_bbfc_9685fc6420c0 o )  ) )):named c25))
(assert (! (exists ((o Int)) (and ( type_37b09f20_badd_4497_8592_f8d3871cf180_Class32 ( obj_d407f65d_1f3c_4b40_bbfc_9685fc6420c0 o )  )  ( type_37b09f20_badd_4497_8592_f8d3871cf180_Class2 ( obj_d407f65d_1f3c_4b40_bbfc_9685fc6420c0 o )  ) )):named c26))
(assert (! (exists ((o Int)) (and (and (and (and (and ( type_37b09f20_badd_4497_8592_f8d3871cf180_Class33 ( obj_d407f65d_1f3c_4b40_bbfc_9685fc6420c0 o )  )  ( type_37b09f20_badd_4497_8592_f8d3871cf180_Class13 ( obj_d407f65d_1f3c_4b40_bbfc_9685fc6420c0 o )  ) ) ( type_37b09f20_badd_4497_8592_f8d3871cf180_Class16 ( obj_d407f65d_1f3c_4b40_bbfc_9685fc6420c0 o )  ) ) ( type_37b09f20_badd_4497_8592_f8d3871cf180_Class15 ( obj_d407f65d_1f3c_4b40_bbfc_9685fc6420c0 o )  ) ) ( type_37b09f20_badd_4497_8592_f8d3871cf180_Class41 ( obj_d407f65d_1f3c_4b40_bbfc_9685fc6420c0 o )  ) ) ( type_37b09f20_badd_4497_8592_f8d3871cf180_Class2 ( obj_d407f65d_1f3c_4b40_bbfc_9685fc6420c0 o )  ) )):named c27))
(assert (! (exists ((o Int)) ( type_37b09f20_badd_4497_8592_f8d3871cf180_Class34 ( obj_d407f65d_1f3c_4b40_bbfc_9685fc6420c0 o )  ) ):named c28))
(assert (! (exists ((o Int)) (and ( type_37b09f20_badd_4497_8592_f8d3871cf180_Class35 ( obj_d407f65d_1f3c_4b40_bbfc_9685fc6420c0 o )  )  ( type_37b09f20_badd_4497_8592_f8d3871cf180_Class2 ( obj_d407f65d_1f3c_4b40_bbfc_9685fc6420c0 o )  ) )):named c29))
(assert (! (exists ((o Int)) ( type_37b09f20_badd_4497_8592_f8d3871cf180_Class36 ( obj_d407f65d_1f3c_4b40_bbfc_9685fc6420c0 o )  ) ):named c30))
(assert (! (exists ((o Int)) ( type_37b09f20_badd_4497_8592_f8d3871cf180_Class37 ( obj_d407f65d_1f3c_4b40_bbfc_9685fc6420c0 o )  ) ):named c31))
(assert (! (exists ((o Int)) (and ( type_37b09f20_badd_4497_8592_f8d3871cf180_Class38 ( obj_d407f65d_1f3c_4b40_bbfc_9685fc6420c0 o )  )  ( type_37b09f20_badd_4497_8592_f8d3871cf180_Class2 ( obj_d407f65d_1f3c_4b40_bbfc_9685fc6420c0 o )  ) )):named c32))
(assert (! (exists ((o Int)) ( type_37b09f20_badd_4497_8592_f8d3871cf180_Class39 ( obj_d407f65d_1f3c_4b40_bbfc_9685fc6420c0 o )  ) ):named c33))
(assert (! (exists ((o Int)) (and (and (and (and (and (and ( type_37b09f20_badd_4497_8592_f8d3871cf180_Class4 ( obj_d407f65d_1f3c_4b40_bbfc_9685fc6420c0 o )  )  ( type_37b09f20_badd_4497_8592_f8d3871cf180_Class33 ( obj_d407f65d_1f3c_4b40_bbfc_9685fc6420c0 o )  ) ) ( type_37b09f20_badd_4497_8592_f8d3871cf180_Class13 ( obj_d407f65d_1f3c_4b40_bbfc_9685fc6420c0 o )  ) ) ( type_37b09f20_badd_4497_8592_f8d3871cf180_Class16 ( obj_d407f65d_1f3c_4b40_bbfc_9685fc6420c0 o )  ) ) ( type_37b09f20_badd_4497_8592_f8d3871cf180_Class15 ( obj_d407f65d_1f3c_4b40_bbfc_9685fc6420c0 o )  ) ) ( type_37b09f20_badd_4497_8592_f8d3871cf180_Class41 ( obj_d407f65d_1f3c_4b40_bbfc_9685fc6420c0 o )  ) ) ( type_37b09f20_badd_4497_8592_f8d3871cf180_Class2 ( obj_d407f65d_1f3c_4b40_bbfc_9685fc6420c0 o )  ) )):named c34))
(assert (! (exists ((o Int)) (and (and (and ( type_37b09f20_badd_4497_8592_f8d3871cf180_Class40 ( obj_d407f65d_1f3c_4b40_bbfc_9685fc6420c0 o )  )  ( type_37b09f20_badd_4497_8592_f8d3871cf180_Class21 ( obj_d407f65d_1f3c_4b40_bbfc_9685fc6420c0 o )  ) ) ( type_37b09f20_badd_4497_8592_f8d3871cf180_Class2 ( obj_d407f65d_1f3c_4b40_bbfc_9685fc6420c0 o )  ) ) ( type_37b09f20_badd_4497_8592_f8d3871cf180_Class20 ( obj_d407f65d_1f3c_4b40_bbfc_9685fc6420c0 o )  ) )):named c35))
(assert (! (exists ((o Int)) (and (and (and ( type_37b09f20_badd_4497_8592_f8d3871cf180_Class41 ( obj_d407f65d_1f3c_4b40_bbfc_9685fc6420c0 o )  )  ( type_37b09f20_badd_4497_8592_f8d3871cf180_Class16 ( obj_d407f65d_1f3c_4b40_bbfc_9685fc6420c0 o )  ) ) ( type_37b09f20_badd_4497_8592_f8d3871cf180_Class15 ( obj_d407f65d_1f3c_4b40_bbfc_9685fc6420c0 o )  ) ) ( type_37b09f20_badd_4497_8592_f8d3871cf180_Class2 ( obj_d407f65d_1f3c_4b40_bbfc_9685fc6420c0 o )  ) )):named c36))
(assert (! (exists ((o Int)) (and (and (and ( type_37b09f20_badd_4497_8592_f8d3871cf180_Class42 ( obj_d407f65d_1f3c_4b40_bbfc_9685fc6420c0 o )  )  ( type_37b09f20_badd_4497_8592_f8d3871cf180_Class22 ( obj_d407f65d_1f3c_4b40_bbfc_9685fc6420c0 o )  ) ) ( type_37b09f20_badd_4497_8592_f8d3871cf180_Class35 ( obj_d407f65d_1f3c_4b40_bbfc_9685fc6420c0 o )  ) ) ( type_37b09f20_badd_4497_8592_f8d3871cf180_Class2 ( obj_d407f65d_1f3c_4b40_bbfc_9685fc6420c0 o )  ) )):named c37))
(assert (! (exists ((o Int)) ( type_37b09f20_badd_4497_8592_f8d3871cf180_Class43 ( obj_d407f65d_1f3c_4b40_bbfc_9685fc6420c0 o )  ) ):named c38))
(assert (! (exists ((o Int)) (and (and (and (and (and (and ( type_37b09f20_badd_4497_8592_f8d3871cf180_Class44 ( obj_d407f65d_1f3c_4b40_bbfc_9685fc6420c0 o )  )  ( type_37b09f20_badd_4497_8592_f8d3871cf180_Class33 ( obj_d407f65d_1f3c_4b40_bbfc_9685fc6420c0 o )  ) ) ( type_37b09f20_badd_4497_8592_f8d3871cf180_Class13 ( obj_d407f65d_1f3c_4b40_bbfc_9685fc6420c0 o )  ) ) ( type_37b09f20_badd_4497_8592_f8d3871cf180_Class16 ( obj_d407f65d_1f3c_4b40_bbfc_9685fc6420c0 o )  ) ) ( type_37b09f20_badd_4497_8592_f8d3871cf180_Class15 ( obj_d407f65d_1f3c_4b40_bbfc_9685fc6420c0 o )  ) ) ( type_37b09f20_badd_4497_8592_f8d3871cf180_Class41 ( obj_d407f65d_1f3c_4b40_bbfc_9685fc6420c0 o )  ) ) ( type_37b09f20_badd_4497_8592_f8d3871cf180_Class2 ( obj_d407f65d_1f3c_4b40_bbfc_9685fc6420c0 o )  ) )):named c39))
(assert (! (exists ((o Int)) ( type_37b09f20_badd_4497_8592_f8d3871cf180_Class45 ( obj_d407f65d_1f3c_4b40_bbfc_9685fc6420c0 o )  ) ):named c40))
(assert (! (exists ((o Int)) ( type_37b09f20_badd_4497_8592_f8d3871cf180_Class5 ( obj_d407f65d_1f3c_4b40_bbfc_9685fc6420c0 o )  ) ):named c41))
(assert (! (exists ((o Int)) (and (and (and (and ( type_37b09f20_badd_4497_8592_f8d3871cf180_Class6 ( obj_d407f65d_1f3c_4b40_bbfc_9685fc6420c0 o )  )  ( type_37b09f20_badd_4497_8592_f8d3871cf180_Class22 ( obj_d407f65d_1f3c_4b40_bbfc_9685fc6420c0 o )  ) ) ( type_37b09f20_badd_4497_8592_f8d3871cf180_Class35 ( obj_d407f65d_1f3c_4b40_bbfc_9685fc6420c0 o )  ) ) ( type_37b09f20_badd_4497_8592_f8d3871cf180_Class2 ( obj_d407f65d_1f3c_4b40_bbfc_9685fc6420c0 o )  ) ) ( type_37b09f20_badd_4497_8592_f8d3871cf180_Class42 ( obj_d407f65d_1f3c_4b40_bbfc_9685fc6420c0 o )  ) )):named c42))
(assert (! (exists ((o Int)) ( type_37b09f20_badd_4497_8592_f8d3871cf180_Class7 ( obj_d407f65d_1f3c_4b40_bbfc_9685fc6420c0 o )  ) ):named c43))
(assert (! (exists ((o Int)) (and (and (and (and (and ( type_37b09f20_badd_4497_8592_f8d3871cf180_Class8 ( obj_d407f65d_1f3c_4b40_bbfc_9685fc6420c0 o )  )  ( type_37b09f20_badd_4497_8592_f8d3871cf180_Class16 ( obj_d407f65d_1f3c_4b40_bbfc_9685fc6420c0 o )  ) ) ( type_37b09f20_badd_4497_8592_f8d3871cf180_Class15 ( obj_d407f65d_1f3c_4b40_bbfc_9685fc6420c0 o )  ) ) ( type_37b09f20_badd_4497_8592_f8d3871cf180_Class41 ( obj_d407f65d_1f3c_4b40_bbfc_9685fc6420c0 o )  ) ) ( type_37b09f20_badd_4497_8592_f8d3871cf180_Class10 ( obj_d407f65d_1f3c_4b40_bbfc_9685fc6420c0 o )  ) ) ( type_37b09f20_badd_4497_8592_f8d3871cf180_Class2 ( obj_d407f65d_1f3c_4b40_bbfc_9685fc6420c0 o )  ) )):named c44))
(assert (! (exists ((o Int)) (and (and (and (and (and (and (and ( type_37b09f20_badd_4497_8592_f8d3871cf180_Class9 ( obj_d407f65d_1f3c_4b40_bbfc_9685fc6420c0 o )  )  ( type_37b09f20_badd_4497_8592_f8d3871cf180_Class22 ( obj_d407f65d_1f3c_4b40_bbfc_9685fc6420c0 o )  ) ) ( type_37b09f20_badd_4497_8592_f8d3871cf180_Class35 ( obj_d407f65d_1f3c_4b40_bbfc_9685fc6420c0 o )  ) ) ( type_37b09f20_badd_4497_8592_f8d3871cf180_Class16 ( obj_d407f65d_1f3c_4b40_bbfc_9685fc6420c0 o )  ) ) ( type_37b09f20_badd_4497_8592_f8d3871cf180_Class15 ( obj_d407f65d_1f3c_4b40_bbfc_9685fc6420c0 o )  ) ) ( type_37b09f20_badd_4497_8592_f8d3871cf180_Class0 ( obj_d407f65d_1f3c_4b40_bbfc_9685fc6420c0 o )  ) ) ( type_37b09f20_badd_4497_8592_f8d3871cf180_Class41 ( obj_d407f65d_1f3c_4b40_bbfc_9685fc6420c0 o )  ) ) ( type_37b09f20_badd_4497_8592_f8d3871cf180_Class2 ( obj_d407f65d_1f3c_4b40_bbfc_9685fc6420c0 o )  ) )):named c45))

 ;end of formula 